* ENCODING=ISO-8859-1
NAME          ../../Software_Engineering/Spring_2018/github_files/BOMILP_instances/7x3x3x2x2/testp1.lp
ROWS
 N  OBJ     
 E  C0      
 E  C1      
 E  C2      
 G  OBJ2    
 G  OBJ3    
COLUMNS
    x0        OBJ                         -0.32
    x0        C0                          11.82
    x0        C1                           5.69
    x0        C2                          10.33
    x0        OBJ2                         0.46
    x0        OBJ3                         -0.6
    x1        OBJ                         -7.95
    x1        C0                          14.43
    x1        C1                          16.74
    x1        C2                          19.23
    x1        OBJ2                         0.64
    x1        OBJ3                         0.64
    x2        OBJ                          4.58
    x2        C0                          14.08
    x2        C1                          18.79
    x2        C2                          14.25
    x2        OBJ2                         5.88
    x2        OBJ3                        -0.88
    MARK0000  'MARKER'                 'INTORG'
    x3        OBJ                       -150.74
    x3        C0                           15.5
    x3        C1                           6.99
    x3        C2                           0.77
    x3        OBJ2                        -8.91
    x3        OBJ3                        -8.91
    x4        OBJ                       -194.95
    x4        C0                          11.11
    x4        C1                          19.28
    x4        C2                           0.88
    x4        OBJ2                       106.99
    x4        OBJ3                      -106.99
    x5        OBJ                         24.96
    x5        C0                           5.27
    x5        C1                          12.88
    x5        C2                           5.11
    x5        OBJ2                        26.92
    x5        OBJ3                       106.92
    x6        OBJ                         10.26
    x6        C0                          14.75
    x6        C1                           14.9
    x6        C2                          13.15
    x6        OBJ2                       -43.83
    x6        OBJ3                         3.83
    MARK0001  'MARKER'                 'INTEND'
    s0        C0                              1
    s1        C1                              1
    s2        C2                              1
RHS
    rhs       C0                          83.51
    rhs       C1                         127.75
    rhs       C2                          90.15
BOUNDS
 UP bnd       x3                              1
 UP bnd       x4                              1
 LI bnd       x5        0
 LI bnd       x6        0
ENDATA
